p cnf 12 50 
6 10 8 0
-4 -2 5 0
11 -12 2 0
-1 3 -7 0
11 -3 10 0
-12 4 -1 0
-11 -7 1 0
-5 8 11 0
-8 2 -3 0
8 12 9 0
1 11 6 0
-12 -7 1 0
-11 -5 -7 0
4 9 3 0
10 9 -4 0
1 -8 -12 0
6 -8 5 0
4 -12 -5 0
-4 6 10 0
11 -10 -8 0
-2 -6 -1 0
-7 -2 4 0
-3 -2 6 0
6 11 -1 0
-12 5 -8 0
-6 12 -5 0
5 -7 -2 0
1 -7 -11 0
-1 -12 -7 0
-4 -1 12 0
-1 -9 7 0
1 -2 -6 0
2 3 1 0
4 -12 -1 0
-6 12 -4 0
6 12 -1 0
12 -9 4 0
-12 -10 -3 0
3 -9 1 0
-7 10 -3 0
-11 1 6 0
9 -8 -7 0
-11 -2 -12 0
-7 -4 9 0
-2 6 -10 0
-6 -5 -10 0
9 -6 -1 0
8 6 5 0
-9 1 -5 0
11 4 2 0
